####################################################################### 
# 
# This file contains crystal structure data downloaded from the 
# Cambridge Structural Database (CSD) hosted by the Cambridge 
# Crystallographic Data Centre (CCDC).
# 
# Full information about CCDC data access policies and citation 
# guidelines are available at http://www.ccdc.cam.ac.uk/access/V1 
# 
# Audit and citation data items may have been added by the CCDC. 
# Please retain this information to preserve the provenance of 
# this file and to allow appropriate attribution of the data. 
# 
#######################################################################

data_DAWGOX
#This CIF has been generated from an entry in the Cambridge Structural Database
_database_code_depnum_ccdc_archive 'CCDC 1136816'
_database_code_CSD               DAWGOX
loop_
_citation_id
_citation_doi
_citation_year
1 10.1021/ja00300a034 1985
_audit_creation_method           'Created from the CSD'
_audit_update_record             
;
2022-09-18 downloaded from the CCDC.
;
_database_code_NBS               560526
_chemical_name_common            'Aspartame hemihydrate'
_chemical_formula_moiety         'C14 H18 N2 O5,0.5(H2 O1)'
_chemical_name_systematic        
'L-Aspartyl-L-phenylalanine methyl ester hemihydrate'
_chemical_absolute_configuration unk
_diffrn_ambient_temperature      295
_exptl_crystal_density_diffrn    1.30951
#These two values have been output from a single CSD field.
_refine_ls_R_factor_gt           0.045
_refine_ls_wR_factor_gt          0.045
_diffrn_radiation_probe          x-ray
_symmetry_cell_setting           tetragonal
_symmetry_space_group_name_H-M   'P 41'
_symmetry_Int_Tables_number      76
_space_group_name_Hall           'P 4w'
loop_
_symmetry_equiv_pos_site_id
_symmetry_equiv_pos_as_xyz
1 x,y,z
2 -y,x,1/4+z
3 -x,-y,1/2+z
4 y,-x,3/4+z
_cell_length_a                   17.685(5)
_cell_length_b                   17.685(5)
_cell_length_c                   4.919(2)
_cell_angle_alpha                90
_cell_angle_beta                 90
_cell_angle_gamma                90
_cell_volume                     1538.46
_cell_formula_units_Z            4
loop_
_atom_site_label
_atom_site_type_symbol
_atom_site_fract_x
_atom_site_fract_y
_atom_site_fract_z
N1 N 0.1630(2) -0.0488(2) 0.2983(15)
C1 C 0.2329(3) -0.0330(3) 0.1434(14)
C2 C 0.2400(3) 0.0513(3) 0.0765(13)
C3 C 0.1843(3) 0.0789(4) -0.1400(16)
O1 O 0.1373(2) 0.0326(2) -0.2257(14)
O2 O 0.1904(2) 0.1438(3) -0.2245(15)
C4 C 0.3001(3) -0.0589(3) 0.3065(18)
O3 O 0.2991(2) -0.0580(2) 0.5587(13)
N2 N 0.3587(3) -0.0824(3) 0.1632(15)
C5 C 0.4275(3) -0.1110(3) 0.2943(17)
C6 C 0.4162(3) -0.1918(3) 0.4005(19)
C7 C 0.3244(4) -0.2593(4) 0.0916(22)
C8 C 0.3080(6) -0.3105(6) -0.1140(24)
C9 C 0.3653(8) -0.3546(5) -0.2202(26)
C10 C 0.4388(6) -0.3467(5) -0.1313(24)
C11 C 0.4557(4) -0.2927(4) 0.0709(23)
C12 C 0.3984(4) -0.2491(3) 0.1840(20)
C13 C 0.4919(4) -0.1028(4) 0.1017(19)
O4 O 0.4894(2) -0.0711(3) -0.1132(14)
O5 O 0.5543(2) -0.1348(2) 0.1984(14)
C14 C 0.6200(3) -0.1312(4) 0.0267(22)
H1 H 0.1126 -0.0425 0.1713
H2 H 0.1570 -0.1118 0.3456
H3 H 0.1602 -0.0137 0.4333
H4 H 0.2293 -0.0629 -0.0183
H5 H 0.2912 0.0564 -0.0319
H6 H 0.2279 0.0711 0.2282
H7 H 0.3618 -0.0857 -0.0207
H8 H 0.4409 -0.0635 0.4409
H9 H 0.3676 -0.1893 0.5239
H10 H 0.4610 -0.2052 0.4797
H11 H 0.2818 -0.2271 0.1596
H12 H 0.2577 -0.3183 -0.1995
H13 H 0.3465 -0.3961 -0.3507
H14 H 0.4815 -0.3843 -0.1614
H15 H 0.5086 -0.2760 0.0932
H16 H 0.6536 -0.0863 0.0462
H17 H 0.6569 -0.1569 0.1166
H18 H 0.6148 -0.1457 -0.1119
O6? O 0.0142(12) -0.0142(12) 0.013(17)

#END
