####################################################################### 
# 
# This file contains crystal structure data downloaded from the 
# Cambridge Structural Database (CSD) hosted by the Cambridge 
# Crystallographic Data Centre (CCDC).
# 
# Full information about CCDC data access policies and citation 
# guidelines are available at http://www.ccdc.cam.ac.uk/access/V1 
# 
# Audit and citation data items may have been added by the CCDC. 
# Please retain this information to preserve the provenance of 
# this file and to allow appropriate attribution of the data. 
# 
#######################################################################

data_DIBMEG
#This CIF has been generated from an entry in the Cambridge Structural Database
_database_code_depnum_ccdc_archive 'CCDC 1140141'
_database_code_CSD               DIBMEG
loop_
_citation_id
_citation_doi
_citation_year
1 10.1021/bi00323a039 1985
_audit_creation_method           'Created from the CSD'
_audit_update_record             
;
2022-09-18 downloaded from the CCDC.
;
_database_code_NBS               562996
_chemical_formula_moiety         'C8 H10 N6 O2,C5 H7 N3 O1'
_chemical_name_systematic        '9-(2-Carbamoylethyl)-guanine 1-methylcytosine'
_chemical_absolute_configuration unk
_diffrn_ambient_temperature      295
_exptl_crystal_density_diffrn    1.497
#These two values have been output from a single CSD field.
_refine_ls_R_factor_gt           0.1
_refine_ls_wR_factor_gt          0.1
_diffrn_radiation_probe          x-ray
_symmetry_cell_setting           monoclinic
_symmetry_space_group_name_H-M   'P 21/c'
_symmetry_Int_Tables_number      14
_space_group_name_Hall           '-P 2ybc'
loop_
_symmetry_equiv_pos_site_id
_symmetry_equiv_pos_as_xyz
1 x,y,z
2 -x,1/2+y,1/2-z
3 -x,-y,-z
4 x,1/2-y,1/2+z
_cell_length_a                   8.540(1)
_cell_length_b                   12.693(3)
_cell_length_c                   14.249(2)
_cell_angle_alpha                90
_cell_angle_beta                 94.02(1)
_cell_angle_gamma                90
_cell_volume                     1540.77
_exptl_crystal_colour            colorless
_cell_formula_units_Z            4
loop_
_atom_site_label
_atom_site_type_symbol
_atom_site_fract_x
_atom_site_fract_y
_atom_site_fract_z
C1 C 0.473(1) -0.417(9) 0.3637(9)
N1 N 0.395(1) -0.3152(6) 0.3471(6)
C2 C 0.480(1) -0.224(1) 0.3659(7)
O1 O 0.6214(8) -0.2321(5) 0.3965(6)
N2 N 0.413(1) -0.1276(6) 0.3513(6)
C3 C 0.262(1) -0.1208(9) 0.3177(8)
N3 N 0.2014(9) -0.0256(6) 0.3043(6)
C4 C 0.171(1) -0.2153(9) 0.2980(8)
C5 C 0.243(1) -0.3079(9) 0.3139(8)
H1 H 0.53(1) -0.424(8) 0.428(7)
H2 H 0.505 -0.428 0.314
H3 H 0.392 -0.465 0.356
H4 H 0.267 0.038 0.319
H5 H 0.090 -0.017 0.279
H6 H 0.059 -0.212 0.274
H7 H 0.182 -0.374 0.301
N4 N 0.6117(9) 0.0536(6) 0.4007(6)
C6 C 0.766(1) 0.0406(9) 0.4378(7)
N5 N 0.8147(9) -0.0610(6) 0.4459(7)
N6 N 0.8623(9) 0.1192(6) 0.4612(6)
C7 C 0.792(1) 0.2140(8) 0.4447(7)
C8 C 0.640(1) 0.2358(8) 0.4109(8)
C9 C 0.539(1) 0.1511(8) 0.3846(8)
O2 O 0.4050(8) 0.1552(5) 0.3483(5)
N7 N 0.6142(9) 0.3442(6) 0.4052(6)
C10 C 0.750(1) 0.3854(8) 0.4357(9)
N8 N 0.8616(9) 0.3101(6) 0.4617(6)
C11 C 1.025(1) 0.3298(8) 0.5049(8)
C12 C 1.149(1) 0.3069(8) 0.4360(7)
C13 C 1.145(1) 0.3792(9) 0.3510(8)
N9 N 1.231(1) 0.3438(8) 0.2830(7)
O3 O 1.0688(8) 0.4618(5) 0.3456(5)
H8 H 0.549 -0.011 0.385
H9 H 0.742 -0.120 0.426
H10 H 0.924 -0.078 0.472
H11 H 0.770 0.463 0.439
H12 H 1.044 0.283 0.561
H13 H 1.034 0.405 0.525
H14 H 1.134 0.233 0.414
H15 H 1.255 0.312 0.470
H16 H 1.290 0.276 0.291
H17 H 1.236 0.385 0.224

#END
