####################################################################### 
# 
# This file contains crystal structure data downloaded from the 
# Cambridge Structural Database (CSD) hosted by the Cambridge 
# Crystallographic Data Centre (CCDC).
# 
# Full information about CCDC data access policies and citation 
# guidelines are available at http://www.ccdc.cam.ac.uk/access/V1 
# 
# Audit and citation data items may have been added by the CCDC. 
# Please retain this information to preserve the provenance of 
# this file and to allow appropriate attribution of the data. 
# 
#######################################################################

data_FUMAAC01
#This CIF has been generated from an entry in the Cambridge Structural Database
_database_code_depnum_ccdc_archive 'CCDC 1161116'
_database_code_CSD               FUMAAC01
loop_
_citation_id
_citation_doi
_citation_year
1 10.1107/S0365110X66003463 1966
_audit_creation_method           'Created from the CSD'
_audit_update_record             
;
2022-09-18 downloaded from the CCDC.
;
_database_code_NBS               512497
_chemical_name_common            'Teaching Subset: Fundamental Chemistry'
_chemical_formula_moiety         'C4 H4 O4'
_chemical_name_systematic        'Fumaric acid'
_chemical_absolute_configuration unk
_diffrn_ambient_temperature      295
_exptl_crystal_density_diffrn    1.61623
#These two values have been output from a single CSD field.
_refine_ls_R_factor_gt           0.062
_refine_ls_wR_factor_gt          0.062
_diffrn_radiation_probe          x-ray
_symmetry_cell_setting           triclinic
_symmetry_space_group_name_H-M   'P -1'
_symmetry_Int_Tables_number      2
_space_group_name_Hall           '-P 1'
loop_
_symmetry_equiv_pos_site_id
_symmetry_equiv_pos_as_xyz
1 x,y,z
2 -x,-y,-z
_cell_length_a                   5.264(3)
_cell_length_b                   7.618(3)
_cell_length_c                   4.487(2)
_cell_angle_alpha                106.85(5)
_cell_angle_beta                 86.34(5)
_cell_angle_gamma                134.93(8)
_cell_volume                     119.254
_cell_formula_units_Z            1
loop_
_atom_site_label
_atom_site_type_symbol
_atom_site_fract_x
_atom_site_fract_y
_atom_site_fract_z
C1 C 0.40790 0.38040 0.40030
C2 C 0.45410 0.21850 0.44950
H1 H 0.68110 0.24170 0.73600
H2 H 0.22900 0.28990 0.18530
O1 O 0.27160 -0.00450 0.25670
O2 O 0.68420 0.32550 0.70260
C1A C 0.59210 0.61960 0.59970
C2A C 0.54590 0.78150 0.55050
H2A H 0.77100 0.71010 0.81470
O1A O 0.72840 1.00450 0.74330
O2A O 0.31580 0.67450 0.29740
H1A H 0.31890 0.75830 0.26400

#END
