####################################################################### 
# 
# This file contains crystal structure data downloaded from the 
# Cambridge Structural Database (CSD) hosted by the Cambridge 
# Crystallographic Data Centre (CCDC).
# 
# Full information about CCDC data access policies and citation 
# guidelines are available at http://www.ccdc.cam.ac.uk/access/V1 
# 
# Audit and citation data items may have been added by the CCDC. 
# Please retain this information to preserve the provenance of 
# this file and to allow appropriate attribution of the data. 
# 
#######################################################################

data_compound_TH
_audit_block_doi                 10.5517/cczgphl
_database_code_depnum_ccdc_archive 'CCDC 907850'
loop_
_citation_id
_citation_doi
_citation_year
1 10.1016/j.jpba.2013.02.001 2013
_audit_update_record             
;
2012-10-25 deposited with the CCDC.	2022-09-18 downloaded from the CCDC.
;
#TrackingRef '14951_web_deposit_cif_file_0_GislaineKuminek_1351182896.gister.cif'


_audit_creation_method           SHELXL-97
_chemical_name_systematic        
;
1-naphthalenemethanamine, N-(6,6-dimethyl-2-hepten-4-ynyl)-N-methyl-1-,
(E)-,monohydrochloride
;
_chemical_name_common            'Terbinafine Hydrochloride'
_chemical_melting_point          ?
_chemical_formula_moiety         'C21 H26 N, Cl'
_chemical_formula_sum            'C21 H26 Cl N'
_chemical_formula_weight         327.88

loop_
_atom_type_symbol
_atom_type_description
_atom_type_scat_dispersion_real
_atom_type_scat_dispersion_imag
_atom_type_scat_source
C C 0.0033 0.0016 'International Tables Vol C Tables 4.2.6.8 and 6.1.1.4'
H H 0.0000 0.0000 'International Tables Vol C Tables 4.2.6.8 and 6.1.1.4'
N N 0.0061 0.0033 'International Tables Vol C Tables 4.2.6.8 and 6.1.1.4'
Cl Cl 0.1484 0.1585 'International Tables Vol C Tables 4.2.6.8 and 6.1.1.4'

_symmetry_cell_setting           monoclinic
_symmetry_space_group_name_H-M   'P 21/n'
_symmetry_space_group_name_Hall  '-P 2yn'

loop_
_symmetry_equiv_pos_as_xyz
'x, y, z'
'-x+1/2, y+1/2, -z+1/2'
'-x, -y, -z'
'x-1/2, -y-1/2, z-1/2'

_cell_length_a                   5.9208(6)
_cell_length_b                   29.420(2)
_cell_length_c                   11.4347(14)
_cell_angle_alpha                90.00
_cell_angle_beta                 97.870(9)
_cell_angle_gamma                90.00
_cell_volume                     1973.0(3)
_cell_formula_units_Z            4
_cell_measurement_temperature    293(2)
_cell_measurement_reflns_used    25
_cell_measurement_theta_min      0.0
_cell_measurement_theta_max      25.5

_exptl_crystal_description       'irregular shaped'
_exptl_crystal_colour            colourless
_exptl_crystal_size_max          0.50
_exptl_crystal_size_mid          0.40
_exptl_crystal_size_min          0.13
_exptl_crystal_density_meas      ?
_exptl_crystal_density_diffrn    1.104
_exptl_crystal_density_method    'not measured'
_exptl_crystal_F_000             704
_exptl_absorpt_coefficient_mu    0.194
_exptl_absorpt_correction_type   none
_exptl_absorpt_correction_T_min  ?
_exptl_absorpt_correction_T_max  ?
_exptl_absorpt_process_details   ?

_exptl_special_details           
;
?
;

_diffrn_ambient_temperature      293(2)
_diffrn_radiation_wavelength     0.71069
_diffrn_radiation_type           MoK\a
_diffrn_radiation_source         'fine-focus sealed tube'
_diffrn_radiation_monochromator  graphite
_diffrn_measurement_device_type  'Enraf-nonius CAD-4 diffratometer'
_diffrn_measurement_method       \w--2\q
_diffrn_detector_area_resol_mean ?
_diffrn_standards_number         3
_diffrn_standards_interval_count 200
_diffrn_standards_interval_time  ?
_diffrn_standards_decay_%        1.0
_diffrn_reflns_number            3814
_diffrn_reflns_av_R_equivalents  0.0275
_diffrn_reflns_av_sigmaI/netI    0.0890
_diffrn_reflns_limit_h_min       -7
_diffrn_reflns_limit_h_max       7
_diffrn_reflns_limit_k_min       -35
_diffrn_reflns_limit_k_max       0
_diffrn_reflns_limit_l_min       -13
_diffrn_reflns_limit_l_max       0
_diffrn_reflns_theta_min         1.38
_diffrn_reflns_theta_max         25.47
_reflns_number_total             3636
_reflns_number_gt                1745
_reflns_threshold_expression     >2\s(I)

_computing_data_collection       'CAD-4 Software (Enraf-Nonius, 1989)'
_computing_cell_refinement       'CAD-4 Software (Enraf-Nonius, 1989)'
_computing_data_reduction        ?
_computing_structure_solution    'SIR-97 (Sheldrick, 2008)'
_computing_structure_refinement  'SHELXL-97 (Sheldrick, 2008)'
_computing_molecular_graphics    'PLATON (Spek, 2009)'
_computing_publication_material  'SHELXL-97 (Sheldrick, 2008)'


_refine_ls_structure_factor_coef Fsqd
_refine_ls_matrix_type           full
_refine_ls_weighting_scheme      calc
_refine_ls_weighting_details     
'calc w=1/[\s^2^(Fo^2^)+(0.0954P)^2^+0.5003P] where P=(Fo^2^+2Fc^2^)/3'
_atom_sites_solution_primary     direct
_atom_sites_solution_secondary   difmap
_atom_sites_solution_hydrogens   geom
_refine_ls_hydrogen_treatment    mixed
_refine_ls_extinction_method     none
_refine_ls_extinction_coef       ?
_refine_ls_number_reflns         3636
_refine_ls_number_parameters     216
_refine_ls_number_restraints     0
_refine_ls_R_factor_all          0.1748
_refine_ls_R_factor_gt           0.0655
_refine_ls_wR_factor_ref         0.2178
_refine_ls_wR_factor_gt          0.1734
_refine_ls_goodness_of_fit_ref   1.056
_refine_ls_restrained_S_all      1.056
_refine_ls_shift/su_max          0.000
_refine_ls_shift/su_mean         0.000

loop_
_atom_site_label
_atom_site_type_symbol
_atom_site_fract_x
_atom_site_fract_y
_atom_site_fract_z
_atom_site_U_iso_or_equiv
_atom_site_adp_type
_atom_site_occupancy
_atom_site_symmetry_multiplicity
_atom_site_calc_flag
_atom_site_refinement_flags
_atom_site_disorder_assembly
_atom_site_disorder_group
Cl1 Cl 0.24233(18) 0.24278(5) 0.64340(9) 0.0771(5) Uani 1 1 d . . .
N1 N 0.9540(5) 0.23343(10) 0.9281(3) 0.0486(8) Uani 1 1 d . . .
C2 C 0.7392(6) 0.29863(15) 0.8315(3) 0.0587(11) Uani 1 1 d . . .
H2 H 0.6567 0.3072 0.8916 0.070 Uiso 1 1 calc R . .
C12 C 0.8138(7) 0.15359(13) 0.8936(4) 0.0573(11) Uani 1 1 d . . .
C13 C 0.7389(7) 0.13559(13) 0.7788(4) 0.0580(11) Uani 1 1 d . . .
C1 C 0.8017(6) 0.25011(13) 0.8225(3) 0.0504(9) Uani 1 1 d . . .
H1A H 0.8774 0.2460 0.7532 0.061 Uiso 1 1 calc R . .
H1B H 0.6637 0.2319 0.8120 0.061 Uiso 1 1 calc R . .
C11 C 1.0157(7) 0.18401(14) 0.9176(3) 0.0599(11) Uani 1 1 d . . .
H11A H 1.1082 0.1807 0.8543 0.072 Uiso 1 1 calc R . .
H11B H 1.1071 0.1745 0.9903 0.072 Uiso 1 1 calc R . .
C10 C 1.1641(7) 0.26100(15) 0.9533(4) 0.0656(12) Uani 1 1 d . . .
H10A H 1.2435 0.2610 0.8855 0.098 Uiso 1 1 calc R . .
H10B H 1.2605 0.2483 1.0196 0.098 Uiso 1 1 calc R . .
H10C H 1.1246 0.2916 0.9711 0.098 Uiso 1 1 calc R . .
C18 C 0.5358(8) 0.10904(14) 0.7613(5) 0.0710(13) Uani 1 1 d . . .
C3 C 0.7940(7) 0.33026(15) 0.7594(4) 0.0643(12) Uani 1 1 d . . .
H3 H 0.8878 0.3218 0.7042 0.077 Uiso 1 1 calc R . .
C4 C 0.7210(8) 0.37669(16) 0.7587(4) 0.0642(11) Uani 1 1 d . . .
C21 C 0.6979(8) 0.14218(15) 0.9849(4) 0.0714(13) Uani 1 1 d . . .
H21 H 0.7509 0.1528 1.0603 0.086 Uiso 1 1 calc R . .
C14 C 0.8536(8) 0.14329(14) 0.6797(4) 0.0672(12) Uani 1 1 d . . .
H14 H 0.9862 0.1606 0.6882 0.081 Uiso 1 1 calc R . .
C15 C 0.7728(10) 0.12578(17) 0.5729(4) 0.0838(15) Uani 1 1 d . . .
H15 H 0.8545 0.1304 0.5101 0.101 Uiso 1 1 calc R . .
C17 C 0.4548(10) 0.09343(17) 0.6465(6) 0.0938(17) Uani 1 1 d . . .
H17 H 0.3181 0.0774 0.6335 0.113 Uiso 1 1 calc R . .
C20 C 0.5022(10) 0.11511(17) 0.9684(6) 0.0917(17) Uani 1 1 d . . .
H20 H 0.4271 0.1080 1.0324 0.110 Uiso 1 1 calc R . .
C16 C 0.5727(13) 0.1013(2) 0.5546(6) 0.104(2) Uani 1 1 d . . .
H16 H 0.5187 0.0903 0.4798 0.125 Uiso 1 1 calc R . .
C19 C 0.4224(9) 0.09932(17) 0.8604(6) 0.0878(16) Uani 1 1 d . . .
H19 H 0.2906 0.0817 0.8503 0.105 Uiso 1 1 calc R . .
C5 C 0.6574(8) 0.41487(16) 0.7535(4) 0.0693(12) Uani 1 1 d . . .
C6 C 0.5706(9) 0.46138(15) 0.7506(4) 0.0782(14) Uani 1 1 d . . .
C8 C 0.668(2) 0.4876(3) 0.6565(8) 0.217(5) Uani 1 1 d . . .
H8A H 0.8317 0.4853 0.6695 0.325 Uiso 1 1 calc R . .
H8B H 0.6244 0.5189 0.6596 0.325 Uiso 1 1 calc R . .
H8C H 0.6118 0.4753 0.5804 0.325 Uiso 1 1 calc R . .
C9 C 0.654(2) 0.4857(3) 0.8607(7) 0.226(6) Uani 1 1 d . . .
H9A H 0.5934 0.4717 0.9255 0.339 Uiso 1 1 calc R . .
H9B H 0.6055 0.5169 0.8540 0.339 Uiso 1 1 calc R . .
H9C H 0.8176 0.4845 0.8744 0.339 Uiso 1 1 calc R . .
C7 C 0.3281(12) 0.4623(3) 0.7283(14) 0.306(9) Uani 1 1 d . . .
H7A H 0.2754 0.4929 0.7355 0.458 Uiso 1 1 calc R . .
H7B H 0.2670 0.4432 0.7845 0.458 Uiso 1 1 calc R . .
H7C H 0.2785 0.4513 0.6499 0.458 Uiso 1 1 calc R . .
H1 H 0.883(7) 0.2394(13) 0.998(4) 0.070(12) Uiso 1 1 d . . .

loop_
_atom_site_aniso_label
_atom_site_aniso_U_11
_atom_site_aniso_U_22
_atom_site_aniso_U_33
_atom_site_aniso_U_23
_atom_site_aniso_U_13
_atom_site_aniso_U_12
Cl1 0.0668(7) 0.1153(11) 0.0527(6) 0.0026(6) 0.0208(5) -0.0113(7)
N1 0.0451(18) 0.057(2) 0.0447(18) -0.0057(15) 0.0088(15) -0.0019(15)
C2 0.054(2) 0.065(3) 0.060(3) 0.001(2) 0.017(2) 0.000(2)
C12 0.060(3) 0.049(3) 0.062(3) 0.006(2) 0.007(2) 0.005(2)
C13 0.053(2) 0.045(2) 0.074(3) 0.004(2) -0.002(2) 0.004(2)
C1 0.048(2) 0.052(3) 0.050(2) 0.0010(18) 0.0068(17) 0.0043(18)
C11 0.057(3) 0.066(3) 0.054(2) -0.004(2) -0.002(2) 0.013(2)
C10 0.054(2) 0.084(3) 0.057(2) -0.015(2) 0.001(2) -0.012(2)
C18 0.063(3) 0.046(3) 0.102(4) -0.003(2) 0.004(3) 0.011(2)
C3 0.073(3) 0.064(3) 0.056(3) -0.002(2) 0.011(2) 0.007(2)
C4 0.075(3) 0.058(3) 0.058(3) 0.008(2) 0.003(2) 0.003(2)
C21 0.085(3) 0.054(3) 0.078(3) 0.006(2) 0.025(3) 0.005(3)
C14 0.079(3) 0.055(3) 0.066(3) 0.000(2) 0.003(2) 0.002(2)
C15 0.113(4) 0.068(3) 0.067(3) -0.004(3) -0.001(3) 0.001(3)
C17 0.082(4) 0.063(3) 0.128(5) -0.018(4) -0.018(4) 0.001(3)
C20 0.105(4) 0.062(3) 0.120(5) 0.010(3) 0.056(4) 0.005(3)
C16 0.134(6) 0.078(4) 0.088(4) -0.014(3) -0.026(4) 0.008(4)
C19 0.068(3) 0.056(3) 0.142(5) 0.004(3) 0.026(4) 0.000(3)
C5 0.080(3) 0.058(3) 0.070(3) 0.008(2) 0.008(2) 0.004(2)
C6 0.090(4) 0.051(3) 0.091(4) 0.008(2) 0.002(3) 0.013(2)
C8 0.320(14) 0.119(7) 0.231(10) 0.096(7) 0.111(10) 0.101(8)
C9 0.372(15) 0.105(6) 0.174(8) -0.062(6) -0.064(9) 0.103(8)
C7 0.075(5) 0.083(6) 0.74(3) -0.023(10) 0.003(10) 0.023(4)

loop_
_geom_bond_atom_site_label_1
_geom_bond_atom_site_label_2
_geom_bond_distance
_geom_bond_site_symmetry_2
_geom_bond_publ_flag
N1 C10 1.480(5) . ?
N1 C1 1.488(4) . ?
N1 C11 1.508(5) . ?
N1 H1 0.97(4) . ?
C2 C3 1.313(5) . ?
C2 C1 1.482(5) . ?
C2 H2 0.9300 . ?
C12 C21 1.368(6) . ?
C12 C13 1.429(6) . ?
C12 C11 1.488(6) . ?
C13 C14 1.417(6) . ?
C13 C18 1.425(6) . ?
C1 H1A 0.9700 . ?
C1 H1B 0.9700 . ?
C11 H11A 0.9700 . ?
C11 H11B 0.9700 . ?
C10 H10A 0.9600 . ?
C10 H10B 0.9600 . ?
C10 H10C 0.9600 . ?
C18 C17 1.412(7) . ?
C18 C19 1.423(7) . ?
C3 C4 1.432(6) . ?
C3 H3 0.9300 . ?
C4 C5 1.184(6) . ?
C21 C20 1.397(7) . ?
C21 H21 0.9300 . ?
C14 C15 1.351(6) . ?
C14 H14 0.9300 . ?
C15 C16 1.377(8) . ?
C15 H15 0.9300 . ?
C17 C16 1.359(8) . ?
C17 H17 0.9300 . ?
C20 C19 1.343(7) . ?
C20 H20 0.9300 . ?
C16 H16 0.9300 . ?
C19 H19 0.9300 . ?
C5 C6 1.460(6) . ?
C6 C7 1.424(8) . ?
C6 C9 1.475(8) . ?
C6 C8 1.502(9) . ?
C8 H8A 0.9600 . ?
C8 H8B 0.9600 . ?
C8 H8C 0.9600 . ?
C9 H9A 0.9600 . ?
C9 H9B 0.9600 . ?
C9 H9C 0.9600 . ?
C7 H7A 0.9600 . ?
C7 H7B 0.9600 . ?
C7 H7C 0.9600 . ?

loop_
_geom_angle_atom_site_label_1
_geom_angle_atom_site_label_2
_geom_angle_atom_site_label_3
_geom_angle
_geom_angle_site_symmetry_1
_geom_angle_site_symmetry_3
_geom_angle_publ_flag
C10 N1 C1 112.1(3) . . ?
C10 N1 C11 109.7(3) . . ?
C1 N1 C11 112.3(3) . . ?
C10 N1 H1 101(2) . . ?
C1 N1 H1 109(2) . . ?
C11 N1 H1 112(2) . . ?
C3 C2 C1 123.6(4) . . ?
C3 C2 H2 118.2 . . ?
C1 C2 H2 118.2 . . ?
C21 C12 C13 119.0(4) . . ?
C21 C12 C11 118.8(4) . . ?
C13 C12 C11 122.2(4) . . ?
C14 C13 C18 117.6(4) . . ?
C14 C13 C12 123.6(4) . . ?
C18 C13 C12 118.8(4) . . ?
C2 C1 N1 113.0(3) . . ?
C2 C1 H1A 109.0 . . ?
N1 C1 H1A 109.0 . . ?
C2 C1 H1B 109.0 . . ?
N1 C1 H1B 109.0 . . ?
H1A C1 H1B 107.8 . . ?
C12 C11 N1 113.4(3) . . ?
C12 C11 H11A 108.9 . . ?
N1 C11 H11A 108.9 . . ?
C12 C11 H11B 108.9 . . ?
N1 C11 H11B 108.9 . . ?
H11A C11 H11B 107.7 . . ?
N1 C10 H10A 109.5 . . ?
N1 C10 H10B 109.5 . . ?
H10A C10 H10B 109.5 . . ?
N1 C10 H10C 109.5 . . ?
H10A C10 H10C 109.5 . . ?
H10B C10 H10C 109.5 . . ?
C17 C18 C19 122.5(5) . . ?
C17 C18 C13 118.8(5) . . ?
C19 C18 C13 118.7(5) . . ?
C2 C3 C4 125.4(4) . . ?
C2 C3 H3 117.3 . . ?
C4 C3 H3 117.3 . . ?
C5 C4 C3 177.4(5) . . ?
C12 C21 C20 122.0(5) . . ?
C12 C21 H21 119.0 . . ?
C20 C21 H21 119.0 . . ?
C15 C14 C13 120.8(5) . . ?
C15 C14 H14 119.6 . . ?
C13 C14 H14 119.6 . . ?
C14 C15 C16 121.9(5) . . ?
C14 C15 H15 119.1 . . ?
C16 C15 H15 119.1 . . ?
C16 C17 C18 121.2(5) . . ?
C16 C17 H17 119.4 . . ?
C18 C17 H17 119.4 . . ?
C19 C20 C21 120.1(5) . . ?
C19 C20 H20 119.9 . . ?
C21 C20 H20 119.9 . . ?
C17 C16 C15 119.6(5) . . ?
C17 C16 H16 120.2 . . ?
C15 C16 H16 120.2 . . ?
C20 C19 C18 121.2(5) . . ?
C20 C19 H19 119.4 . . ?
C18 C19 H19 119.4 . . ?
C4 C5 C6 177.3(5) . . ?
C7 C6 C5 111.4(5) . . ?
C7 C6 C9 110.8(8) . . ?
C5 C6 C9 111.1(5) . . ?
C7 C6 C8 109.9(8) . . ?
C5 C6 C8 109.2(5) . . ?
C9 C6 C8 104.2(7) . . ?
C6 C8 H8A 109.5 . . ?
C6 C8 H8B 109.5 . . ?
H8A C8 H8B 109.5 . . ?
C6 C8 H8C 109.5 . . ?
H8A C8 H8C 109.5 . . ?
H8B C8 H8C 109.5 . . ?
C6 C9 H9A 109.5 . . ?
C6 C9 H9B 109.5 . . ?
H9A C9 H9B 109.5 . . ?
C6 C9 H9C 109.5 . . ?
H9A C9 H9C 109.5 . . ?
H9B C9 H9C 109.5 . . ?
C6 C7 H7A 109.5 . . ?
C6 C7 H7B 109.5 . . ?
H7A C7 H7B 109.5 . . ?
C6 C7 H7C 109.5 . . ?
H7A C7 H7C 109.5 . . ?
H7B C7 H7C 109.5 . . ?

loop_
_geom_torsion_atom_site_label_1
_geom_torsion_atom_site_label_2
_geom_torsion_atom_site_label_3
_geom_torsion_atom_site_label_4
_geom_torsion
_geom_torsion_site_symmetry_1
_geom_torsion_site_symmetry_2
_geom_torsion_site_symmetry_3
_geom_torsion_site_symmetry_4
_geom_torsion_publ_flag
C21 C12 C13 C14 -176.6(4) . . . . ?
C11 C12 C13 C14 2.7(6) . . . . ?
C21 C12 C13 C18 4.6(6) . . . . ?
C11 C12 C13 C18 -176.1(4) . . . . ?
C3 C2 C1 N1 117.4(4) . . . . ?
C10 N1 C1 C2 -55.9(4) . . . . ?
C11 N1 C1 C2 179.9(3) . . . . ?
C21 C12 C11 N1 -78.0(5) . . . . ?
C13 C12 C11 N1 102.7(4) . . . . ?
C10 N1 C11 C12 179.3(3) . . . . ?
C1 N1 C11 C12 -55.2(4) . . . . ?
C14 C13 C18 C17 -2.5(6) . . . . ?
C12 C13 C18 C17 176.4(4) . . . . ?
C14 C13 C18 C19 177.6(4) . . . . ?
C12 C13 C18 C19 -3.5(6) . . . . ?
C1 C2 C3 C4 174.4(4) . . . . ?
C2 C3 C4 C5 -124(11) . . . . ?
C13 C12 C21 C20 -3.0(7) . . . . ?
C11 C12 C21 C20 177.7(4) . . . . ?
C18 C13 C14 C15 -0.3(6) . . . . ?
C12 C13 C14 C15 -179.2(4) . . . . ?
C13 C14 C15 C16 2.5(7) . . . . ?
C19 C18 C17 C16 -176.7(5) . . . . ?
C13 C18 C17 C16 3.3(7) . . . . ?
C12 C21 C20 C19 0.1(8) . . . . ?
C18 C17 C16 C15 -1.3(9) . . . . ?
C14 C15 C16 C17 -1.6(9) . . . . ?
C21 C20 C19 C18 1.0(8) . . . . ?
C17 C18 C19 C20 -179.2(5) . . . . ?
C13 C18 C19 C20 0.8(7) . . . . ?
C3 C4 C5 C6 109(14) . . . . ?
C4 C5 C6 C7 -45(11) . . . . ?
C4 C5 C6 C9 79(11) . . . . ?
C4 C5 C6 C8 -166(11) . . . . ?

loop_
_geom_hbond_atom_site_label_D
_geom_hbond_atom_site_label_H
_geom_hbond_atom_site_label_A
_geom_hbond_distance_DH
_geom_hbond_distance_HA
_geom_hbond_distance_DA
_geom_hbond_angle_DHA
_geom_hbond_site_symmetry_A
N1 H1 Cl1 0.97(4) 2.03(4) 2.995(3) 175(3) 4_666

_diffrn_measured_fraction_theta_max 0.992
_diffrn_reflns_theta_full        25.47
_diffrn_measured_fraction_theta_full 0.992
_refine_diff_density_max         0.309
_refine_diff_density_min         -0.224
_refine_diff_density_rms         0.055


